0 4860.00
1 4860.00
2 4774.25
3 4774.25
4 4685.08
5 4685.08
6 4685.08
7 4685.08
8 4685.08
9 4685.08
10 4685.08
11 4685.08
12 4685.08
13 4685.08
14 4685.08
15 4685.08
16 4685.08
17 4685.08
18 4685.08
19 4685.08
20 4685.08
21 4685.08
22 4685.08
23 4685.08
24 4685.08
25 4685.08
26 4685.08
27 4685.08
28 4685.08
29 4685.08
30 4685.08
31 4654.02
32 4654.02
33 4654.02
34 4654.02
35 4653.44
36 4653.44
37 4653.44
38 4653.44
39 4653.44
40 4620.44
41 4620.44
42 4620.44
43 4620.44
44 4620.44
45 4620.44
46 4620.44
47 4620.44
48 4620.44
49 4620.44
50 4620.44
51 4620.44
52 4620.44
53 4620.44
54 4620.44
55 4620.44
56 4620.44
57 4620.44
58 4620.44
59 4620.44
60 4620.44
61 4620.44
62 4620.44
63 4620.44
64 4620.44
65 4620.44
66 4620.44
67 4620.44
68 4620.44
69 4620.44
70 4620.44
71 4615.38
72 4615.38
73 4615.38
74 4615.38
75 4615.38
76 4615.38
77 4615.38
78 4615.38
79 4615.38
80 4615.38
81 4615.38
82 4615.38
83 4615.38
84 4615.38
85 4615.38
86 4615.38
87 4615.38
88 4597.77
89 4597.77
90 4597.77
91 4597.77
92 4597.77
93 4597.77
94 4597.77
95 4597.77
96 4597.77
97 4597.77
98 4597.77
99 4597.77
100 4597.77
101 4597.77
102 4597.77
103 4597.77
104 4597.77
105 4597.77
106 4597.77
107 4597.77
108 4597.77
109 4597.77
110 4597.77
111 4597.77
112 4597.77
113 4597.77
114 4597.77
115 4597.77
116 4597.77
117 4597.77
118 4597.77
119 4597.77
120 4597.77
121 4597.77
122 4597.77
123 4597.77
124 4597.77
125 4597.77
126 4597.77
127 4597.77
128 4597.77
129 4597.77
130 4597.77
131 4597.77
132 4597.77
133 4597.77
134 4597.77
135 4597.77
136 4597.77
137 4597.77
138 4597.77
139 4597.77
140 4597.77
141 4597.77
142 4597.77
143 4597.77
144 4597.77
145 4597.77
146 4597.77
147 4597.77
148 4597.77
149 4597.77
150 4597.60
151 4597.60
152 4597.60
153 4597.60
154 4597.60
155 4597.60
156 4597.60
157 4597.60
158 4597.60
159 4597.60
160 4597.60
161 4597.60
162 4597.60
163 4597.60
164 4597.60
165 4596.38
166 4596.38
167 4596.38
168 4596.38
169 4596.38
170 4596.38
171 4596.38
172 4596.38
173 4596.38
174 4596.38
175 4596.38
176 4596.38
177 4596.38
178 4596.38
179 4596.38
180 4596.38
181 4596.38
182 4596.38
183 4596.38
184 4596.38
185 4596.38
186 4596.38
187 4596.38
188 4596.38
189 4596.38
190 4596.38
191 4596.38
192 4596.38
193 4596.38
194 4596.38
195 4596.38
196 4596.38
197 4596.38
198 4596.38
199 4596.38
200 4596.38
201 4596.38
202 4596.38
203 4596.38
204 4596.38
205 4596.38
206 4596.38
207 4596.38
208 4596.38
209 4596.38
210 4596.38
211 4596.38
212 4596.38
213 4596.38
214 4596.38
215 4596.38
216 4596.38
217 4596.38
218 4596.38
219 4596.38
220 4596.38
221 4596.38
222 4596.38
223 4596.38
224 4596.38
225 4596.38
226 4596.38
227 4596.38
228 4596.38
229 4596.38
230 4596.38
231 4596.38
232 4596.38
233 4596.38
234 4595.62
235 4595.62
236 4595.62
237 4595.62
238 4595.62
239 4595.62
240 4595.62
241 4595.62
242 4595.62
243 4595.62
244 4595.62
245 4595.62
246 4595.62
247 4595.62
248 4595.62
249 4595.62
250 4595.62
251 4595.62
252 4595.62
253 4595.62
254 4595.62
255 4581.95
256 4581.95
257 4581.95
258 4581.95
259 4581.95
260 4581.95
261 4581.95
262 4581.95
263 4581.95
264 4581.95
265 4581.95
266 4581.95
267 4581.95
268 4581.95
269 4581.95
270 4581.95
271 4581.95
272 4581.95
273 4581.95
274 4581.95
275 4581.95
276 4581.95
277 4581.95
278 4581.95
279 4581.95
280 4581.95
281 4581.43
282 4581.43
283 4581.43
284 4581.43
285 4581.43
286 4581.43
287 4577.91
288 4577.91
289 4577.91
290 4577.91
291 4577.91
292 4577.91
293 4577.91
294 4577.91
295 4577.91
296 4577.91
297 4577.91
298 4577.91
299 4577.91
300 4577.91
301 4577.91
302 4577.91
303 4577.91
304 4577.14
305 4577.14
306 4577.14
307 4577.14
308 4577.14
309 4577.14
310 4577.14
311 4577.14
312 4577.14
313 4577.14
314 4577.14
315 4577.14
316 4577.14
317 4577.14
318 4577.14
319 4577.14
320 4577.14
321 4577.14
322 4577.14
323 4577.14
324 4577.14
325 4577.14
326 4577.14
327 4577.14
328 4577.14
329 4577.14
330 4577.14
331 4577.14
332 4577.14
333 4577.14
334 4577.14
335 4577.14
336 4577.14
337 4577.14
338 4577.14
339 4577.14
340 4577.14
341 4577.14
342 4577.14
343 4577.14
344 4577.14
345 4577.14
346 4577.14
347 4577.14
348 4569.82
349 4569.82
350 4569.82
351 4569.82
352 4569.82
353 4569.82
354 4569.82
355 4569.82
356 4569.82
357 4569.82
358 4569.82
359 4569.82
360 4569.82
361 4569.82
362 4569.82
363 4569.82
364 4569.82
365 4569.82
366 4569.82
367 4569.82
368 4569.82
369 4569.82
370 4569.82
371 4569.82
372 4569.82
373 4569.82
374 4569.82
375 4569.82
376 4569.82
377 4569.82
378 4569.82
379 4569.82
380 4569.82
381 4569.82
382 4569.82
383 4569.82
384 4569.82
385 4568.40
386 4568.40
387 4568.40
388 4568.40
389 4568.40
390 4568.40
391 4568.40
392 4568.40
393 4568.40
394 4568.40
395 4568.40
396 4568.40
397 4568.40
398 4568.40
399 4568.40
400 4568.40
401 4568.40
402 4568.40
403 4568.40
404 4568.40
405 4568.40
406 4568.40
407 4568.40
408 4568.40
409 4568.40
410 4568.40
411 4568.40
412 4568.40
413 4567.13
414 4567.13
415 4567.13
416 4567.13
417 4567.13
418 4567.13
419 4567.13
420 4567.13
421 4567.13
422 4567.13
423 4567.13
424 4567.13
425 4567.13
426 4567.13
427 4567.13
428 4567.13
429 4567.13
430 4567.13
431 4567.13
432 4567.13
433 4567.13
434 4567.13
435 4567.13
436 4567.13
437 4567.13
438 4567.13
439 4567.13
440 4567.13
441 4567.13
442 4567.13
443 4567.13
444 4567.13
445 4567.13
446 4567.13
447 4567.13
448 4567.13
449 4567.13
450 4567.13
451 4567.13
452 4567.13
453 4567.13
454 4567.13
455 4567.13
456 4567.13
457 4567.13
458 4567.13
459 4567.13
460 4567.13
461 4567.13
462 4567.13
463 4567.13
464 4567.13
465 4567.13
466 4567.13
467 4567.13
468 4567.13
469 4567.13
470 4567.13
471 4567.13
472 4567.13
473 4567.13
474 4567.13
475 4567.13
476 4567.13
477 4567.13
478 4567.13
479 4567.13
480 4567.13
481 4567.13
482 4567.13
483 4567.13
484 4567.13
485 4567.13
486 4567.13
487 4567.13
488 4567.13
489 4567.13
490 4567.13
491 4567.13
492 4567.13
493 4567.13
494 4567.13
495 4567.13
496 4567.13
497 4567.13
498 4567.13
499 4567.13
4 3 10 4 0 0 